(declare-const in91 Int)
(declare-const in71 Int)
(declare-const in93 Int)
(declare-const in92 Int)
(declare-const in62 Int)
(declare-const in84 Int)
(declare-const in61 Int)
(declare-const in83 Int)
(declare-const in42 Int)
(declare-const in64 Int)
(declare-const in86 Int)
(declare-const in41 Int)
(declare-const in63 Int)
(declare-const in85 Int)
(declare-const in21 Int)
(declare-const in43 Int)
(declare-const in65 Int)
(declare-const in87 Int)
(declare-const in02 Int)
(declare-const in01 Int)
(declare-const in04 Int)
(declare-const in03 Int)
(declare-const in06 Int)
(declare-const in05 Int)
(declare-const in08 Int)
(declare-const in07 Int)
(declare-const in09 Int)
(declare-const in82 Int)
(declare-const in81 Int)
(declare-const in51 Int)
(declare-const in73 Int)
(declare-const in95 Int)
(declare-const in72 Int)
(declare-const in94 Int)
(declare-const in31 Int)
(declare-const in53 Int)
(declare-const in75 Int)
(declare-const in97 Int)
(declare-const in52 Int)
(declare-const in74 Int)
(declare-const in96 Int)
(declare-const in32 Int)
(declare-const in54 Int)
(declare-const in76 Int)
(declare-const in98 Int)

(assert (and (and (and (and (and (and (and (and (and (and (and (and (and (and (and (and (and (and (and (and (and (and (and (and (and (and (and (and (and (and (and (and (and (and (and (and (and (and (and (and (and (and (and (and (and (and (and (and (and (and (and (and (and (and (and (and (and (and (and (and (and (and (and (and (and (and (and (and (and (and (and  ( <  in02 in01)  ( <  in03 in02))  ( <  in04 in03))  ( <  in05 in04))  ( <  in06 in05))  ( <  in07 in06))  ( <  in08 in07))  ( <  in09 in08))  ( <  ( +  in91 in09) in01))  ( <  ( +  in92 in09) in02))  ( <  ( +  in93 in09) in03))  ( <  ( +  in94 in09) in04))  ( <  ( +  in95 in09) in05))  ( <  ( +  in96 in09) in06))  ( <  ( +  in97 in09) in07))  ( <  ( +  in98 in09) in08))  ( <  ( +  in92 in09) ( +  in91 in09)))  ( <  ( +  in93 in09) ( +  in92 in09)))  ( <  ( +  in94 in09) ( +  in93 in09)))  ( <  ( +  in95 in09) ( +  in94 in09)))  ( <  ( +  in96 in09) ( +  in95 in09)))  ( <  ( +  in97 in09) ( +  in96 in09)))  ( <  ( +  in98 in09) ( +  in97 in09)))  ( <  ( +  in81 ( +  in98 in09)) ( +  in91 in09)))  ( <  ( +  in82 ( +  in98 in09)) ( +  in92 in09)))  ( <  ( +  in83 ( +  in98 in09)) ( +  in93 in09)))  ( <  ( +  in84 ( +  in98 in09)) ( +  in94 in09)))  ( <  ( +  in85 ( +  in98 in09)) ( +  in95 in09)))  ( <  ( +  in86 ( +  in98 in09)) ( +  in96 in09)))  ( <  ( +  in87 ( +  in98 in09)) ( +  in97 in09)))  ( <  ( +  in82 ( +  in98 in09)) ( +  in81 ( +  in98 in09))))  ( <  ( +  in83 ( +  in98 in09)) ( +  in82 ( +  in98 in09))))  ( <  ( +  in84 ( +  in98 in09)) ( +  in83 ( +  in98 in09))))  ( <  ( +  in85 ( +  in98 in09)) ( +  in84 ( +  in98 in09))))  ( <  ( +  in86 ( +  in98 in09)) ( +  in85 ( +  in98 in09))))  ( <  ( +  in87 ( +  in98 in09)) ( +  in86 ( +  in98 in09))))  ( <  ( +  in71 ( +  in87 ( +  in98 in09))) ( +  in81 ( +  in98 in09))))  ( <  ( +  in72 ( +  in87 ( +  in98 in09))) ( +  in82 ( +  in98 in09))))  ( <  ( +  in73 ( +  in87 ( +  in98 in09))) ( +  in83 ( +  in98 in09))))  ( <  ( +  in74 ( +  in87 ( +  in98 in09))) ( +  in84 ( +  in98 in09))))  ( <  ( +  in75 ( +  in87 ( +  in98 in09))) ( +  in85 ( +  in98 in09))))  ( <  ( +  in76 ( +  in87 ( +  in98 in09))) ( +  in86 ( +  in98 in09))))  ( <  ( +  in72 ( +  in87 ( +  in98 in09))) ( +  in71 ( +  in87 ( +  in98 in09)))))  ( <  ( +  in73 ( +  in87 ( +  in98 in09))) ( +  in72 ( +  in87 ( +  in98 in09)))))  ( <  ( +  in74 ( +  in87 ( +  in98 in09))) ( +  in73 ( +  in87 ( +  in98 in09)))))  ( <  ( +  in75 ( +  in87 ( +  in98 in09))) ( +  in74 ( +  in87 ( +  in98 in09)))))  ( <  ( +  in76 ( +  in87 ( +  in98 in09))) ( +  in75 ( +  in87 ( +  in98 in09)))))  ( <  ( +  in61 ( +  in76 ( +  in87 ( +  in98 in09)))) ( +  in71 ( +  in87 ( +  in98 in09)))))  ( <  ( +  in62 ( +  in76 ( +  in87 ( +  in98 in09)))) ( +  in72 ( +  in87 ( +  in98 in09)))))  ( <  ( +  in63 ( +  in76 ( +  in87 ( +  in98 in09)))) ( +  in73 ( +  in87 ( +  in98 in09)))))  ( <  ( +  in64 ( +  in76 ( +  in87 ( +  in98 in09)))) ( +  in74 ( +  in87 ( +  in98 in09)))))  ( <  ( +  in65 ( +  in76 ( +  in87 ( +  in98 in09)))) ( +  in75 ( +  in87 ( +  in98 in09)))))  ( <  ( +  in62 ( +  in76 ( +  in87 ( +  in98 in09)))) ( +  in61 ( +  in76 ( +  in87 ( +  in98 in09))))))  ( <  ( +  in63 ( +  in76 ( +  in87 ( +  in98 in09)))) ( +  in62 ( +  in76 ( +  in87 ( +  in98 in09))))))  ( <  ( +  in64 ( +  in76 ( +  in87 ( +  in98 in09)))) ( +  in63 ( +  in76 ( +  in87 ( +  in98 in09))))))  ( <  ( +  in65 ( +  in76 ( +  in87 ( +  in98 in09)))) ( +  in64 ( +  in76 ( +  in87 ( +  in98 in09))))))  ( <  ( +  in51 ( +  in65 ( +  in76 ( +  in87 ( +  in98 in09))))) ( +  in61 ( +  in76 ( +  in87 ( +  in98 in09))))))  ( <  ( +  in52 ( +  in65 ( +  in76 ( +  in87 ( +  in98 in09))))) ( +  in62 ( +  in76 ( +  in87 ( +  in98 in09))))))  ( <  ( +  in53 ( +  in65 ( +  in76 ( +  in87 ( +  in98 in09))))) ( +  in63 ( +  in76 ( +  in87 ( +  in98 in09))))))  ( <  ( +  in54 ( +  in65 ( +  in76 ( +  in87 ( +  in98 in09))))) ( +  in64 ( +  in76 ( +  in87 ( +  in98 in09))))))  ( <  ( +  in52 ( +  in65 ( +  in76 ( +  in87 ( +  in98 in09))))) ( +  in51 ( +  in65 ( +  in76 ( +  in87 ( +  in98 in09)))))))  ( <  ( +  in53 ( +  in65 ( +  in76 ( +  in87 ( +  in98 in09))))) ( +  in52 ( +  in65 ( +  in76 ( +  in87 ( +  in98 in09)))))))  ( <  ( +  in54 ( +  in65 ( +  in76 ( +  in87 ( +  in98 in09))))) ( +  in53 ( +  in65 ( +  in76 ( +  in87 ( +  in98 in09)))))))  ( <  ( +  in41 ( +  in54 ( +  in65 ( +  in76 ( +  in87 ( +  in98 in09)))))) ( +  in51 ( +  in65 ( +  in76 ( +  in87 ( +  in98 in09)))))))  ( <  ( +  in42 ( +  in54 ( +  in65 ( +  in76 ( +  in87 ( +  in98 in09)))))) ( +  in52 ( +  in65 ( +  in76 ( +  in87 ( +  in98 in09)))))))  ( <  ( +  in43 ( +  in54 ( +  in65 ( +  in76 ( +  in87 ( +  in98 in09)))))) ( +  in53 ( +  in65 ( +  in76 ( +  in87 ( +  in98 in09)))))))  ( <  ( +  in42 ( +  in54 ( +  in65 ( +  in76 ( +  in87 ( +  in98 in09)))))) ( +  in41 ( +  in54 ( +  in65 ( +  in76 ( +  in87 ( +  in98 in09))))))))  ( <  ( +  in43 ( +  in54 ( +  in65 ( +  in76 ( +  in87 ( +  in98 in09)))))) ( +  in42 ( +  in54 ( +  in65 ( +  in76 ( +  in87 ( +  in98 in09))))))))  ( <  ( +  in31 ( +  in43 ( +  in54 ( +  in65 ( +  in76 ( +  in87 ( +  in98 in09))))))) ( +  in41 ( +  in54 ( +  in65 ( +  in76 ( +  in87 ( +  in98 in09))))))))  ( <  ( +  in32 ( +  in43 ( +  in54 ( +  in65 ( +  in76 ( +  in87 ( +  in98 in09))))))) ( +  in42 ( +  in54 ( +  in65 ( +  in76 ( +  in87 ( +  in98 in09))))))))  ( <  ( +  in32 ( +  in43 ( +  in54 ( +  in65 ( +  in76 ( +  in87 ( +  in98 in09))))))) ( +  in31 ( +  in43 ( +  in54 ( +  in65 ( +  in76 ( +  in87 ( +  in98 in09)))))))))  ( <  ( +  in21 ( +  in32 ( +  in43 ( +  in54 ( +  in65 ( +  in76 ( +  in87 ( +  in98 in09)))))))) ( +  in31 ( +  in43 ( +  in54 ( +  in65 ( +  in76 ( +  in87 ( +  in98 in09))))))))))

(check-sat)
(get-model)